<?xml version="1.0" encoding="UTF-8"?><osil xmlns="os.optimizationservices.org"   xmlns:xsi="http://www.w3.org/2001/XMLSchema-instance" xsi:schemaLocation="os.optimizationservices.org http://www.optimizationservices.org/schemas/2.0/OSiL.xsd" ><instanceHeader><name>q_40_0_50_2</name></instanceHeader><instanceData><variables numberOfVariables="40"><var name="x1" ub="1"/><var name="x2" ub="1"/><var name="x3" ub="1"/><var name="x4" ub="1"/><var name="x5" ub="1"/><var name="x6" ub="1"/><var name="x7" ub="1"/><var name="x8" ub="1"/><var name="x9" ub="1"/><var name="x10" ub="1"/><var name="x11" ub="1"/><var name="x12" ub="1"/><var name="x13" ub="1"/><var name="x14" ub="1"/><var name="x15" ub="1"/><var name="x16" ub="1"/><var name="x17" ub="1"/><var name="x18" ub="1"/><var name="x19" ub="1"/><var name="x20" ub="1"/><var name="x21" ub="1"/><var name="x22" ub="1"/><var name="x23" ub="1"/><var name="x24" ub="1"/><var name="x25" ub="1"/><var name="x26" ub="1"/><var name="x27" ub="1"/><var name="x28" ub="1"/><var name="x29" ub="1"/><var name="x30" ub="1"/><var name="x31" ub="1"/><var name="x32" ub="1"/><var name="x33" ub="1"/><var name="x34" ub="1"/><var name="x35" ub="1"/><var name="x36" ub="1"/><var name="x37" ub="1"/><var name="x38" ub="1"/><var name="x39" ub="1"/><var name="x40" ub="1"/></variables><objectives numberOfObjectives="1"><obj maxOrMin="min" name="defObj_x41" numberOfObjCoef="40"><coef idx="0">-.4983</coef><coef idx="1">-.7987</coef><coef idx="2">.7787</coef><coef idx="3">5.8e-3</coef><coef idx="4">.6542</coef><coef idx="5">-.6512</coef><coef idx="6">-.7005</coef><coef idx="7">.9521</coef><coef idx="8">-.7566</coef><coef idx="9">3.66e-2</coef><coef idx="10">-.8072</coef><coef idx="11">-.2158</coef><coef idx="12">8.12e-2</coef><coef idx="13">-.5801</coef><coef idx="14">.4612</coef><coef idx="15">4.61e-2</coef><coef idx="16">-.3502</coef><coef idx="17">.3886</coef><coef idx="18">.6079</coef><coef idx="19">8.62e-2</coef><coef idx="20">.1605</coef><coef idx="21">-9.57e-2</coef><coef idx="22">.2045</coef><coef idx="23">1.71e-2</coef><coef idx="24">-.583</coef><coef idx="25">.5788</coef><coef idx="26">.6998</coef><coef idx="27">.3015</coef><coef idx="28">.206</coef><coef idx="29">-.4502</coef><coef idx="30">.5983</coef><coef idx="31">-.2093</coef><coef idx="32">.6127</coef><coef idx="33">.8645</coef><coef idx="34">-.5408</coef><coef idx="35">.876</coef><coef idx="36">.2698</coef><coef idx="37">.6276</coef><coef idx="38">-.6553</coef><coef idx="39">.4874</coef></obj></objectives><quadraticCoefficients  numberOfQuadraticTerms="410" ><qTerm  idx="-1"  idxOne="0"  idxTwo="7"  coef=".1146"/><qTerm  idx="-1"  idxOne="0"  idxTwo="8"  coef=".8619"/><qTerm  idx="-1"  idxOne="0"  idxTwo="10"  coef="1.7423"/><qTerm  idx="-1"  idxOne="0"  idxTwo="17"  coef="-.2788"/><qTerm  idx="-1"  idxOne="0"  idxTwo="27"  coef="1.1008"/><qTerm  idx="-1"  idxOne="0"  idxTwo="28"  coef="-1.9979"/><qTerm  idx="-1"  idxOne="0"  idxTwo="30"  coef="-1.5053"/><qTerm  idx="-1"  idxOne="0"  idxTwo="36"  coef="6.84e-2"/><qTerm  idx="-1"  idxOne="0"  idxTwo="38"  coef="-1.8903"/><qTerm  idx="-1"  idxOne="1"  idxTwo="1"  coef="-1.8108"/><qTerm  idx="-1"  idxOne="1"  idxTwo="3"  coef="-.28"/><qTerm  idx="-1"  idxOne="1"  idxTwo="4"  coef="1.412"/><qTerm  idx="-1"  idxOne="1"  idxTwo="10"  coef="1.0469"/><qTerm  idx="-1"  idxOne="1"  idxTwo="11"  coef="-1.3553"/><qTerm  idx="-1"  idxOne="1"  idxTwo="13"  coef="-.5767"/><qTerm  idx="-1"  idxOne="1"  idxTwo="14"  coef=".3357"/><qTerm  idx="-1"  idxOne="1"  idxTwo="15"  coef="-1.7254"/><qTerm  idx="-1"  idxOne="1"  idxTwo="18"  coef="-.3094"/><qTerm  idx="-1"  idxOne="1"  idxTwo="19"  coef=".5425"/><qTerm  idx="-1"  idxOne="1"  idxTwo="20"  coef="-1.8937"/><qTerm  idx="-1"  idxOne="1"  idxTwo="23"  coef="1.7271"/><qTerm  idx="-1"  idxOne="1"  idxTwo="24"  coef=".7999"/><qTerm  idx="-1"  idxOne="1"  idxTwo="25"  coef="-1.9767"/><qTerm  idx="-1"  idxOne="1"  idxTwo="26"  coef="-1.07e-2"/><qTerm  idx="-1"  idxOne="1"  idxTwo="27"  coef="-.4386"/><qTerm  idx="-1"  idxOne="1"  idxTwo="28"  coef="1.8068"/><qTerm  idx="-1"  idxOne="1"  idxTwo="33"  coef=".68"/><qTerm  idx="-1"  idxOne="1"  idxTwo="34"  coef=".7473"/><qTerm  idx="-1"  idxOne="1"  idxTwo="37"  coef="-1.906"/><qTerm  idx="-1"  idxOne="2"  idxTwo="6"  coef="-.239"/><qTerm  idx="-1"  idxOne="2"  idxTwo="8"  coef=".9385"/><qTerm  idx="-1"  idxOne="2"  idxTwo="9"  coef="-1.9755"/><qTerm  idx="-1"  idxOne="2"  idxTwo="10"  coef="-1.4752"/><qTerm  idx="-1"  idxOne="2"  idxTwo="11"  coef=".3879"/><qTerm  idx="-1"  idxOne="2"  idxTwo="13"  coef="-.9446"/><qTerm  idx="-1"  idxOne="2"  idxTwo="14"  coef="1.7367"/><qTerm  idx="-1"  idxOne="2"  idxTwo="15"  coef=".7842"/><qTerm  idx="-1"  idxOne="2"  idxTwo="16"  coef="-.6481"/><qTerm  idx="-1"  idxOne="2"  idxTwo="17"  coef="1.0908"/><qTerm  idx="-1"  idxOne="2"  idxTwo="18"  coef="1.3722"/><qTerm  idx="-1"  idxOne="2"  idxTwo="21"  coef="1.0554"/><qTerm  idx="-1"  idxOne="2"  idxTwo="22"  coef=".9185"/><qTerm  idx="-1"  idxOne="2"  idxTwo="25"  coef="1.8947"/><qTerm  idx="-1"  idxOne="2"  idxTwo="29"  coef="-1.9348"/><qTerm  idx="-1"  idxOne="2"  idxTwo="30"  coef="1.9593"/><qTerm  idx="-1"  idxOne="2"  idxTwo="34"  coef=".9313"/><qTerm  idx="-1"  idxOne="2"  idxTwo="36"  coef="1.1922"/><qTerm  idx="-1"  idxOne="2"  idxTwo="37"  coef="-1.2753"/><qTerm  idx="-1"  idxOne="3"  idxTwo="3"  coef="-.2135"/><qTerm  idx="-1"  idxOne="3"  idxTwo="10"  coef=".1288"/><qTerm  idx="-1"  idxOne="3"  idxTwo="11"  coef="1.5102"/><qTerm  idx="-1"  idxOne="3"  idxTwo="12"  coef="-1.9252"/><qTerm  idx="-1"  idxOne="3"  idxTwo="13"  coef="1.2979"/><qTerm  idx="-1"  idxOne="3"  idxTwo="15"  coef="-.4087"/><qTerm  idx="-1"  idxOne="3"  idxTwo="16"  coef="-1.5633"/><qTerm  idx="-1"  idxOne="3"  idxTwo="17"  coef="-.5937"/><qTerm  idx="-1"  idxOne="3"  idxTwo="19"  coef=".9297"/><qTerm  idx="-1"  idxOne="3"  idxTwo="20"  coef="1.1956"/><qTerm  idx="-1"  idxOne="3"  idxTwo="22"  coef=".6672"/><qTerm  idx="-1"  idxOne="3"  idxTwo="24"  coef="-1.7987"/><qTerm  idx="-1"  idxOne="3"  idxTwo="25"  coef="-.806"/><qTerm  idx="-1"  idxOne="3"  idxTwo="26"  coef="-.3128"/><qTerm  idx="-1"  idxOne="3"  idxTwo="29"  coef="-1.6519"/><qTerm  idx="-1"  idxOne="3"  idxTwo="32"  coef="-1.2448"/><qTerm  idx="-1"  idxOne="3"  idxTwo="39"  coef="-1.1771"/><qTerm  idx="-1"  idxOne="4"  idxTwo="5"  coef="-1.5537"/><qTerm  idx="-1"  idxOne="4"  idxTwo="8"  coef="-1.024"/><qTerm  idx="-1"  idxOne="4"  idxTwo="9"  coef="-1.9618"/><qTerm  idx="-1"  idxOne="4"  idxTwo="12"  coef="1.276"/><qTerm  idx="-1"  idxOne="4"  idxTwo="18"  coef="1.9302"/><qTerm  idx="-1"  idxOne="4"  idxTwo="20"  coef="-1.0281"/><qTerm  idx="-1"  idxOne="4"  idxTwo="23"  coef="-1.7764"/><qTerm  idx="-1"  idxOne="4"  idxTwo="24"  coef="1.1407"/><qTerm  idx="-1"  idxOne="4"  idxTwo="25"  coef="1.3709"/><qTerm  idx="-1"  idxOne="4"  idxTwo="26"  coef="-1.4075"/><qTerm  idx="-1"  idxOne="4"  idxTwo="27"  coef="-.8159"/><qTerm  idx="-1"  idxOne="4"  idxTwo="28"  coef=".8667"/><qTerm  idx="-1"  idxOne="4"  idxTwo="29"  coef="-1.328"/><qTerm  idx="-1"  idxOne="4"  idxTwo="32"  coef=".8375"/><qTerm  idx="-1"  idxOne="4"  idxTwo="33"  coef="-1.5077"/><qTerm  idx="-1"  idxOne="4"  idxTwo="38"  coef=".3622"/><qTerm  idx="-1"  idxOne="5"  idxTwo="5"  coef="1.1064"/><qTerm  idx="-1"  idxOne="5"  idxTwo="7"  coef=".2009"/><qTerm  idx="-1"  idxOne="5"  idxTwo="9"  coef="-.6666"/><qTerm  idx="-1"  idxOne="5"  idxTwo="10"  coef="-.4814"/><qTerm  idx="-1"  idxOne="5"  idxTwo="11"  coef="-.8003"/><qTerm  idx="-1"  idxOne="5"  idxTwo="13"  coef=".6058"/><qTerm  idx="-1"  idxOne="5"  idxTwo="14"  coef="-1.9175"/><qTerm  idx="-1"  idxOne="5"  idxTwo="16"  coef="1.3681"/><qTerm  idx="-1"  idxOne="5"  idxTwo="18"  coef="1.543"/><qTerm  idx="-1"  idxOne="5"  idxTwo="19"  coef=".9967"/><qTerm  idx="-1"  idxOne="5"  idxTwo="22"  coef="-.2064"/><qTerm  idx="-1"  idxOne="5"  idxTwo="23"  coef="-.5652"/><qTerm  idx="-1"  idxOne="5"  idxTwo="24"  coef=".8163"/><qTerm  idx="-1"  idxOne="5"  idxTwo="26"  coef="-.9577"/><qTerm  idx="-1"  idxOne="5"  idxTwo="27"  coef="-.9218"/><qTerm  idx="-1"  idxOne="5"  idxTwo="29"  coef=".2689"/><qTerm  idx="-1"  idxOne="5"  idxTwo="31"  coef="-1.6626"/><qTerm  idx="-1"  idxOne="5"  idxTwo="32"  coef=".6208"/><qTerm  idx="-1"  idxOne="5"  idxTwo="33"  coef=".5562"/><qTerm  idx="-1"  idxOne="5"  idxTwo="34"  coef="-9.9e-2"/><qTerm  idx="-1"  idxOne="5"  idxTwo="36"  coef="-2.9e-3"/><qTerm  idx="-1"  idxOne="5"  idxTwo="37"  coef=".218"/><qTerm  idx="-1"  idxOne="5"  idxTwo="38"  coef="-1.4916"/><qTerm  idx="-1"  idxOne="6"  idxTwo="11"  coef="1.6289"/><qTerm  idx="-1"  idxOne="6"  idxTwo="12"  coef="-.3572"/><qTerm  idx="-1"  idxOne="6"  idxTwo="15"  coef="1.8955"/><qTerm  idx="-1"  idxOne="6"  idxTwo="16"  coef=".4216"/><qTerm  idx="-1"  idxOne="6"  idxTwo="17"  coef=".5642"/><qTerm  idx="-1"  idxOne="6"  idxTwo="19"  coef="-.3125"/><qTerm  idx="-1"  idxOne="6"  idxTwo="21"  coef="-.237"/><qTerm  idx="-1"  idxOne="6"  idxTwo="22"  coef=".4287"/><qTerm  idx="-1"  idxOne="6"  idxTwo="24"  coef="-1.9985"/><qTerm  idx="-1"  idxOne="6"  idxTwo="25"  coef="1.6751"/><qTerm  idx="-1"  idxOne="6"  idxTwo="27"  coef="-1.0098"/><qTerm  idx="-1"  idxOne="6"  idxTwo="28"  coef="-1.3022"/><qTerm  idx="-1"  idxOne="6"  idxTwo="29"  coef="-1.5449"/><qTerm  idx="-1"  idxOne="6"  idxTwo="30"  coef="1.3634"/><qTerm  idx="-1"  idxOne="6"  idxTwo="31"  coef="1.7759"/><qTerm  idx="-1"  idxOne="6"  idxTwo="32"  coef=".6967"/><qTerm  idx="-1"  idxOne="6"  idxTwo="33"  coef="-2.03e-2"/><qTerm  idx="-1"  idxOne="6"  idxTwo="34"  coef=".119"/><qTerm  idx="-1"  idxOne="6"  idxTwo="35"  coef="1.2317"/><qTerm  idx="-1"  idxOne="6"  idxTwo="38"  coef="-1.7429"/><qTerm  idx="-1"  idxOne="6"  idxTwo="39"  coef="-.7157"/><qTerm  idx="-1"  idxOne="7"  idxTwo="7"  coef="-1.1239"/><qTerm  idx="-1"  idxOne="7"  idxTwo="8"  coef="-.1584"/><qTerm  idx="-1"  idxOne="7"  idxTwo="10"  coef="-1.6386"/><qTerm  idx="-1"  idxOne="7"  idxTwo="12"  coef=".1045"/><qTerm  idx="-1"  idxOne="7"  idxTwo="13"  coef="1.2033"/><qTerm  idx="-1"  idxOne="7"  idxTwo="15"  coef=".5004"/><qTerm  idx="-1"  idxOne="7"  idxTwo="16"  coef="1.9571"/><qTerm  idx="-1"  idxOne="7"  idxTwo="17"  coef=".1895"/><qTerm  idx="-1"  idxOne="7"  idxTwo="18"  coef="1.999"/><qTerm  idx="-1"  idxOne="7"  idxTwo="20"  coef="1.0638"/><qTerm  idx="-1"  idxOne="7"  idxTwo="22"  coef="1.2415"/><qTerm  idx="-1"  idxOne="7"  idxTwo="24"  coef=".1627"/><qTerm  idx="-1"  idxOne="7"  idxTwo="26"  coef="1.1917"/><qTerm  idx="-1"  idxOne="7"  idxTwo="27"  coef="-8.14e-2"/><qTerm  idx="-1"  idxOne="7"  idxTwo="29"  coef=".5161"/><qTerm  idx="-1"  idxOne="7"  idxTwo="30"  coef="-1.6518"/><qTerm  idx="-1"  idxOne="7"  idxTwo="31"  coef="-.6481"/><qTerm  idx="-1"  idxOne="7"  idxTwo="32"  coef="1.5177"/><qTerm  idx="-1"  idxOne="7"  idxTwo="34"  coef=".8671"/><qTerm  idx="-1"  idxOne="7"  idxTwo="36"  coef="1.4993"/><qTerm  idx="-1"  idxOne="7"  idxTwo="37"  coef=".7137"/><qTerm  idx="-1"  idxOne="7"  idxTwo="38"  coef="-.3513"/><qTerm  idx="-1"  idxOne="8"  idxTwo="9"  coef="1.846"/><qTerm  idx="-1"  idxOne="8"  idxTwo="12"  coef="-1.5057"/><qTerm  idx="-1"  idxOne="8"  idxTwo="13"  coef="1.1674"/><qTerm  idx="-1"  idxOne="8"  idxTwo="15"  coef="1.9276"/><qTerm  idx="-1"  idxOne="8"  idxTwo="17"  coef="1.5815"/><qTerm  idx="-1"  idxOne="8"  idxTwo="18"  coef="1.2935"/><qTerm  idx="-1"  idxOne="8"  idxTwo="19"  coef="-.4763"/><qTerm  idx="-1"  idxOne="8"  idxTwo="20"  coef=".1569"/><qTerm  idx="-1"  idxOne="8"  idxTwo="22"  coef="1.9704"/><qTerm  idx="-1"  idxOne="8"  idxTwo="23"  coef=".2273"/><qTerm  idx="-1"  idxOne="8"  idxTwo="24"  coef="-1.1272"/><qTerm  idx="-1"  idxOne="8"  idxTwo="25"  coef=".7168"/><qTerm  idx="-1"  idxOne="8"  idxTwo="27"  coef="1.2587"/><qTerm  idx="-1"  idxOne="8"  idxTwo="28"  coef=".9288"/><qTerm  idx="-1"  idxOne="8"  idxTwo="29"  coef=".7287"/><qTerm  idx="-1"  idxOne="8"  idxTwo="32"  coef=".9279"/><qTerm  idx="-1"  idxOne="8"  idxTwo="33"  coef="1.1043"/><qTerm  idx="-1"  idxOne="8"  idxTwo="35"  coef=".8902"/><qTerm  idx="-1"  idxOne="8"  idxTwo="36"  coef="1.9621"/><qTerm  idx="-1"  idxOne="8"  idxTwo="37"  coef=".8782"/><qTerm  idx="-1"  idxOne="8"  idxTwo="38"  coef="-1.4341"/><qTerm  idx="-1"  idxOne="9"  idxTwo="11"  coef="-.2997"/><qTerm  idx="-1"  idxOne="9"  idxTwo="13"  coef="1.3616"/><qTerm  idx="-1"  idxOne="9"  idxTwo="15"  coef="-1.5345"/><qTerm  idx="-1"  idxOne="9"  idxTwo="17"  coef=".1051"/><qTerm  idx="-1"  idxOne="9"  idxTwo="20"  coef=".1302"/><qTerm  idx="-1"  idxOne="9"  idxTwo="21"  coef="1.9731"/><qTerm  idx="-1"  idxOne="9"  idxTwo="22"  coef="-1.5837"/><qTerm  idx="-1"  idxOne="9"  idxTwo="23"  coef="-1.7778"/><qTerm  idx="-1"  idxOne="9"  idxTwo="24"  coef="-8.19e-2"/><qTerm  idx="-1"  idxOne="9"  idxTwo="26"  coef="-.3348"/><qTerm  idx="-1"  idxOne="9"  idxTwo="27"  coef="-.1982"/><qTerm  idx="-1"  idxOne="9"  idxTwo="28"  coef="-.9703"/><qTerm  idx="-1"  idxOne="9"  idxTwo="29"  coef="1.0298"/><qTerm  idx="-1"  idxOne="9"  idxTwo="30"  coef="-.2597"/><qTerm  idx="-1"  idxOne="9"  idxTwo="33"  coef=".7453"/><qTerm  idx="-1"  idxOne="9"  idxTwo="34"  coef="-.2102"/><qTerm  idx="-1"  idxOne="9"  idxTwo="37"  coef="-.1356"/><qTerm  idx="-1"  idxOne="10"  idxTwo="10"  coef="-.2256"/><qTerm  idx="-1"  idxOne="10"  idxTwo="11"  coef="-1.8944"/><qTerm  idx="-1"  idxOne="10"  idxTwo="13"  coef="-.3108"/><qTerm  idx="-1"  idxOne="10"  idxTwo="14"  coef="-1.0999"/><qTerm  idx="-1"  idxOne="10"  idxTwo="17"  coef="1.1382"/><qTerm  idx="-1"  idxOne="10"  idxTwo="18"  coef="1.8105"/><qTerm  idx="-1"  idxOne="10"  idxTwo="19"  coef="1.3749"/><qTerm  idx="-1"  idxOne="10"  idxTwo="20"  coef="-.4977"/><qTerm  idx="-1"  idxOne="10"  idxTwo="22"  coef=".9627"/><qTerm  idx="-1"  idxOne="10"  idxTwo="26"  coef=".8151"/><qTerm  idx="-1"  idxOne="10"  idxTwo="28"  coef="-.2148"/><qTerm  idx="-1"  idxOne="10"  idxTwo="29"  coef=".3083"/><qTerm  idx="-1"  idxOne="10"  idxTwo="34"  coef="-1.0943"/><qTerm  idx="-1"  idxOne="10"  idxTwo="36"  coef="-1.3904"/><qTerm  idx="-1"  idxOne="10"  idxTwo="37"  coef="1.5814"/><qTerm  idx="-1"  idxOne="10"  idxTwo="38"  coef="-1.6471"/><qTerm  idx="-1"  idxOne="11"  idxTwo="14"  coef="1.024"/><qTerm  idx="-1"  idxOne="11"  idxTwo="16"  coef="-1.4684"/><qTerm  idx="-1"  idxOne="11"  idxTwo="19"  coef="1.016"/><qTerm  idx="-1"  idxOne="11"  idxTwo="23"  coef=".4046"/><qTerm  idx="-1"  idxOne="11"  idxTwo="24"  coef="-.8644"/><qTerm  idx="-1"  idxOne="11"  idxTwo="25"  coef="1.6346"/><qTerm  idx="-1"  idxOne="11"  idxTwo="26"  coef="-.6033"/><qTerm  idx="-1"  idxOne="11"  idxTwo="34"  coef="-.7825"/><qTerm  idx="-1"  idxOne="11"  idxTwo="35"  coef="-.6249"/><qTerm  idx="-1"  idxOne="11"  idxTwo="36"  coef=".2157"/><qTerm  idx="-1"  idxOne="11"  idxTwo="38"  coef="-1.4493"/><qTerm  idx="-1"  idxOne="11"  idxTwo="39"  coef=".4724"/><qTerm  idx="-1"  idxOne="12"  idxTwo="12"  coef=".4979"/><qTerm  idx="-1"  idxOne="12"  idxTwo="13"  coef="1.7859"/><qTerm  idx="-1"  idxOne="12"  idxTwo="15"  coef="-1.8629"/><qTerm  idx="-1"  idxOne="12"  idxTwo="16"  coef="1.8352"/><qTerm  idx="-1"  idxOne="12"  idxTwo="17"  coef="-1.3585"/><qTerm  idx="-1"  idxOne="12"  idxTwo="19"  coef="-1.7664"/><qTerm  idx="-1"  idxOne="12"  idxTwo="21"  coef="1.3297"/><qTerm  idx="-1"  idxOne="12"  idxTwo="22"  coef="-1.7368"/><qTerm  idx="-1"  idxOne="12"  idxTwo="24"  coef="-.7949"/><qTerm  idx="-1"  idxOne="12"  idxTwo="25"  coef="-1.8857"/><qTerm  idx="-1"  idxOne="12"  idxTwo="28"  coef="-.2961"/><qTerm  idx="-1"  idxOne="12"  idxTwo="30"  coef=".9767"/><qTerm  idx="-1"  idxOne="12"  idxTwo="34"  coef="-1.9015"/><qTerm  idx="-1"  idxOne="12"  idxTwo="37"  coef="-.2148"/><qTerm  idx="-1"  idxOne="12"  idxTwo="38"  coef="-.9662"/><qTerm  idx="-1"  idxOne="13"  idxTwo="14"  coef="1.9851"/><qTerm  idx="-1"  idxOne="13"  idxTwo="15"  coef="-1.0172"/><qTerm  idx="-1"  idxOne="13"  idxTwo="16"  coef="-.7683"/><qTerm  idx="-1"  idxOne="13"  idxTwo="17"  coef="1.7306"/><qTerm  idx="-1"  idxOne="13"  idxTwo="19"  coef=".4432"/><qTerm  idx="-1"  idxOne="13"  idxTwo="21"  coef=".1993"/><qTerm  idx="-1"  idxOne="13"  idxTwo="24"  coef="-.6892"/><qTerm  idx="-1"  idxOne="13"  idxTwo="30"  coef="1.411"/><qTerm  idx="-1"  idxOne="13"  idxTwo="31"  coef="-.5054"/><qTerm  idx="-1"  idxOne="13"  idxTwo="32"  coef="1.235"/><qTerm  idx="-1"  idxOne="13"  idxTwo="33"  coef=".4331"/><qTerm  idx="-1"  idxOne="14"  idxTwo="14"  coef="-9.4e-3"/><qTerm  idx="-1"  idxOne="14"  idxTwo="17"  coef="-1.2081"/><qTerm  idx="-1"  idxOne="14"  idxTwo="19"  coef="1.9501"/><qTerm  idx="-1"  idxOne="14"  idxTwo="22"  coef="-1.9256"/><qTerm  idx="-1"  idxOne="14"  idxTwo="27"  coef=".5784"/><qTerm  idx="-1"  idxOne="14"  idxTwo="30"  coef="-.5485"/><qTerm  idx="-1"  idxOne="15"  idxTwo="15"  coef="-.6129"/><qTerm  idx="-1"  idxOne="15"  idxTwo="18"  coef="-1.8351"/><qTerm  idx="-1"  idxOne="15"  idxTwo="19"  coef="-1.7182"/><qTerm  idx="-1"  idxOne="15"  idxTwo="20"  coef="-.774"/><qTerm  idx="-1"  idxOne="15"  idxTwo="23"  coef="-.3761"/><qTerm  idx="-1"  idxOne="15"  idxTwo="25"  coef="-.4621"/><qTerm  idx="-1"  idxOne="15"  idxTwo="26"  coef="-.2194"/><qTerm  idx="-1"  idxOne="15"  idxTwo="28"  coef="1.244"/><qTerm  idx="-1"  idxOne="15"  idxTwo="32"  coef="-.5197"/><qTerm  idx="-1"  idxOne="15"  idxTwo="33"  coef="-1.0081"/><qTerm  idx="-1"  idxOne="15"  idxTwo="34"  coef="-1.7672"/><qTerm  idx="-1"  idxOne="15"  idxTwo="36"  coef="-.1552"/><qTerm  idx="-1"  idxOne="15"  idxTwo="37"  coef="1.7594"/><qTerm  idx="-1"  idxOne="16"  idxTwo="17"  coef="-1.0345"/><qTerm  idx="-1"  idxOne="16"  idxTwo="20"  coef="-.206"/><qTerm  idx="-1"  idxOne="16"  idxTwo="21"  coef="1.5127"/><qTerm  idx="-1"  idxOne="16"  idxTwo="23"  coef="-4.93e-2"/><qTerm  idx="-1"  idxOne="16"  idxTwo="24"  coef="-.8942"/><qTerm  idx="-1"  idxOne="16"  idxTwo="25"  coef="9.24e-2"/><qTerm  idx="-1"  idxOne="16"  idxTwo="26"  coef="1.6811"/><qTerm  idx="-1"  idxOne="16"  idxTwo="27"  coef="-1.4256"/><qTerm  idx="-1"  idxOne="16"  idxTwo="29"  coef="1.7478"/><qTerm  idx="-1"  idxOne="16"  idxTwo="32"  coef="-1.3548"/><qTerm  idx="-1"  idxOne="16"  idxTwo="33"  coef="-.4029"/><qTerm  idx="-1"  idxOne="16"  idxTwo="34"  coef="1.2782"/><qTerm  idx="-1"  idxOne="16"  idxTwo="36"  coef="-1.3958"/><qTerm  idx="-1"  idxOne="16"  idxTwo="38"  coef="7.61e-2"/><qTerm  idx="-1"  idxOne="17"  idxTwo="18"  coef="1.3375"/><qTerm  idx="-1"  idxOne="17"  idxTwo="19"  coef="-.3924"/><qTerm  idx="-1"  idxOne="17"  idxTwo="20"  coef=".2614"/><qTerm  idx="-1"  idxOne="17"  idxTwo="21"  coef=".1054"/><qTerm  idx="-1"  idxOne="17"  idxTwo="23"  coef="1.4448"/><qTerm  idx="-1"  idxOne="17"  idxTwo="24"  coef="-.5219"/><qTerm  idx="-1"  idxOne="17"  idxTwo="25"  coef="-.8886"/><qTerm  idx="-1"  idxOne="17"  idxTwo="31"  coef="-.3937"/><qTerm  idx="-1"  idxOne="17"  idxTwo="32"  coef="-.3779"/><qTerm  idx="-1"  idxOne="17"  idxTwo="35"  coef="-.515"/><qTerm  idx="-1"  idxOne="17"  idxTwo="38"  coef="-.6111"/><qTerm  idx="-1"  idxOne="18"  idxTwo="18"  coef="-1.6975"/><qTerm  idx="-1"  idxOne="18"  idxTwo="21"  coef="-1.0447"/><qTerm  idx="-1"  idxOne="18"  idxTwo="23"  coef="-.3726"/><qTerm  idx="-1"  idxOne="18"  idxTwo="24"  coef="-.8258"/><qTerm  idx="-1"  idxOne="18"  idxTwo="28"  coef="1.2035"/><qTerm  idx="-1"  idxOne="18"  idxTwo="29"  coef="-.4976"/><qTerm  idx="-1"  idxOne="18"  idxTwo="30"  coef="1.6256"/><qTerm  idx="-1"  idxOne="18"  idxTwo="31"  coef="1.3202"/><qTerm  idx="-1"  idxOne="18"  idxTwo="34"  coef="2.19e-2"/><qTerm  idx="-1"  idxOne="18"  idxTwo="35"  coef="-1.0807"/><qTerm  idx="-1"  idxOne="18"  idxTwo="37"  coef="-1.7469"/><qTerm  idx="-1"  idxOne="18"  idxTwo="38"  coef=".795"/><qTerm  idx="-1"  idxOne="19"  idxTwo="22"  coef=".307"/><qTerm  idx="-1"  idxOne="19"  idxTwo="23"  coef="-.2215"/><qTerm  idx="-1"  idxOne="19"  idxTwo="24"  coef="1.2486"/><qTerm  idx="-1"  idxOne="19"  idxTwo="29"  coef="-1.9625"/><qTerm  idx="-1"  idxOne="19"  idxTwo="30"  coef=".7897"/><qTerm  idx="-1"  idxOne="19"  idxTwo="31"  coef="-1.2273"/><qTerm  idx="-1"  idxOne="19"  idxTwo="33"  coef=".7447"/><qTerm  idx="-1"  idxOne="19"  idxTwo="35"  coef="1.2554"/><qTerm  idx="-1"  idxOne="19"  idxTwo="36"  coef="-.4702"/><qTerm  idx="-1"  idxOne="19"  idxTwo="37"  coef="-.1498"/><qTerm  idx="-1"  idxOne="19"  idxTwo="38"  coef=".7473"/><qTerm  idx="-1"  idxOne="19"  idxTwo="39"  coef="-.6194"/><qTerm  idx="-1"  idxOne="20"  idxTwo="22"  coef=".7692"/><qTerm  idx="-1"  idxOne="20"  idxTwo="24"  coef=".3395"/><qTerm  idx="-1"  idxOne="20"  idxTwo="25"  coef="-1.9785"/><qTerm  idx="-1"  idxOne="20"  idxTwo="26"  coef=".8225"/><qTerm  idx="-1"  idxOne="20"  idxTwo="27"  coef=".6902"/><qTerm  idx="-1"  idxOne="20"  idxTwo="30"  coef="-1.6997"/><qTerm  idx="-1"  idxOne="20"  idxTwo="31"  coef=".2994"/><qTerm  idx="-1"  idxOne="20"  idxTwo="32"  coef="-.8796"/><qTerm  idx="-1"  idxOne="20"  idxTwo="33"  coef="-1.9425"/><qTerm  idx="-1"  idxOne="20"  idxTwo="37"  coef="1.5452"/><qTerm  idx="-1"  idxOne="21"  idxTwo="21"  coef="-1.9148"/><qTerm  idx="-1"  idxOne="21"  idxTwo="23"  coef="-1.257"/><qTerm  idx="-1"  idxOne="21"  idxTwo="25"  coef=".4252"/><qTerm  idx="-1"  idxOne="21"  idxTwo="26"  coef="1.781"/><qTerm  idx="-1"  idxOne="21"  idxTwo="29"  coef="-1.7514"/><qTerm  idx="-1"  idxOne="21"  idxTwo="30"  coef="-1.6623"/><qTerm  idx="-1"  idxOne="21"  idxTwo="33"  coef=".9705"/><qTerm  idx="-1"  idxOne="21"  idxTwo="38"  coef="1.3236"/><qTerm  idx="-1"  idxOne="21"  idxTwo="39"  coef="3.51e-2"/><qTerm  idx="-1"  idxOne="22"  idxTwo="23"  coef=".4188"/><qTerm  idx="-1"  idxOne="22"  idxTwo="25"  coef="-1.1858"/><qTerm  idx="-1"  idxOne="22"  idxTwo="26"  coef="5.21e-2"/><qTerm  idx="-1"  idxOne="22"  idxTwo="27"  coef="-.4537"/><qTerm  idx="-1"  idxOne="22"  idxTwo="30"  coef="1.6062"/><qTerm  idx="-1"  idxOne="22"  idxTwo="31"  coef=".864"/><qTerm  idx="-1"  idxOne="22"  idxTwo="32"  coef="1.1411"/><qTerm  idx="-1"  idxOne="22"  idxTwo="34"  coef=".7414"/><qTerm  idx="-1"  idxOne="22"  idxTwo="35"  coef="-.7753"/><qTerm  idx="-1"  idxOne="22"  idxTwo="39"  coef=".4393"/><qTerm  idx="-1"  idxOne="23"  idxTwo="24"  coef="1.4831"/><qTerm  idx="-1"  idxOne="23"  idxTwo="25"  coef=".6116"/><qTerm  idx="-1"  idxOne="23"  idxTwo="27"  coef="1.1236"/><qTerm  idx="-1"  idxOne="23"  idxTwo="30"  coef="-1.6779"/><qTerm  idx="-1"  idxOne="23"  idxTwo="31"  coef="-.4738"/><qTerm  idx="-1"  idxOne="23"  idxTwo="32"  coef=".1515"/><qTerm  idx="-1"  idxOne="23"  idxTwo="34"  coef="-1.1569"/><qTerm  idx="-1"  idxOne="23"  idxTwo="35"  coef=".1274"/><qTerm  idx="-1"  idxOne="23"  idxTwo="36"  coef="9.e-2"/><qTerm  idx="-1"  idxOne="23"  idxTwo="38"  coef=".937"/><qTerm  idx="-1"  idxOne="24"  idxTwo="24"  coef="1.4986"/><qTerm  idx="-1"  idxOne="24"  idxTwo="25"  coef="1.23"/><qTerm  idx="-1"  idxOne="24"  idxTwo="26"  coef=".1329"/><qTerm  idx="-1"  idxOne="24"  idxTwo="27"  coef="-1.0859"/><qTerm  idx="-1"  idxOne="24"  idxTwo="28"  coef="-1.7162"/><qTerm  idx="-1"  idxOne="24"  idxTwo="31"  coef="-.9249"/><qTerm  idx="-1"  idxOne="24"  idxTwo="35"  coef=".8466"/><qTerm  idx="-1"  idxOne="24"  idxTwo="36"  coef="-1.2345"/><qTerm  idx="-1"  idxOne="24"  idxTwo="37"  coef="1.3785"/><qTerm  idx="-1"  idxOne="25"  idxTwo="25"  coef="-1.5702"/><qTerm  idx="-1"  idxOne="25"  idxTwo="26"  coef="1.2583"/><qTerm  idx="-1"  idxOne="25"  idxTwo="27"  coef="-.6973"/><qTerm  idx="-1"  idxOne="25"  idxTwo="28"  coef=".3766"/><qTerm  idx="-1"  idxOne="25"  idxTwo="29"  coef=".4549"/><qTerm  idx="-1"  idxOne="25"  idxTwo="30"  coef="1.9699"/><qTerm  idx="-1"  idxOne="25"  idxTwo="34"  coef=".111"/><qTerm  idx="-1"  idxOne="25"  idxTwo="35"  coef="1.6845"/><qTerm  idx="-1"  idxOne="25"  idxTwo="36"  coef=".8635"/><qTerm  idx="-1"  idxOne="25"  idxTwo="37"  coef="1.5984"/><qTerm  idx="-1"  idxOne="26"  idxTwo="33"  coef=".2759"/><qTerm  idx="-1"  idxOne="26"  idxTwo="35"  coef="-1.1248"/><qTerm  idx="-1"  idxOne="26"  idxTwo="36"  coef="1.9448"/><qTerm  idx="-1"  idxOne="26"  idxTwo="37"  coef=".4497"/><qTerm  idx="-1"  idxOne="27"  idxTwo="29"  coef="-1.1746"/><qTerm  idx="-1"  idxOne="27"  idxTwo="30"  coef="7.52e-2"/><qTerm  idx="-1"  idxOne="27"  idxTwo="31"  coef="-1.8642"/><qTerm  idx="-1"  idxOne="27"  idxTwo="32"  coef=".3989"/><qTerm  idx="-1"  idxOne="27"  idxTwo="33"  coef=".9508"/><qTerm  idx="-1"  idxOne="27"  idxTwo="34"  coef="1.516"/><qTerm  idx="-1"  idxOne="27"  idxTwo="35"  coef="1.057"/><qTerm  idx="-1"  idxOne="27"  idxTwo="36"  coef="-.9661"/><qTerm  idx="-1"  idxOne="27"  idxTwo="38"  coef="1.7661"/><qTerm  idx="-1"  idxOne="28"  idxTwo="29"  coef="-1.2678"/><qTerm  idx="-1"  idxOne="28"  idxTwo="30"  coef="-1.2536"/><qTerm  idx="-1"  idxOne="28"  idxTwo="31"  coef=".5538"/><qTerm  idx="-1"  idxOne="28"  idxTwo="34"  coef="1.8284"/><qTerm  idx="-1"  idxOne="28"  idxTwo="35"  coef="-1.73e-2"/><qTerm  idx="-1"  idxOne="28"  idxTwo="37"  coef=".3197"/><qTerm  idx="-1"  idxOne="28"  idxTwo="38"  coef=".425"/><qTerm  idx="-1"  idxOne="29"  idxTwo="30"  coef="-.8936"/><qTerm  idx="-1"  idxOne="29"  idxTwo="32"  coef="-1.3653"/><qTerm  idx="-1"  idxOne="29"  idxTwo="33"  coef="1.2038"/><qTerm  idx="-1"  idxOne="29"  idxTwo="35"  coef="-.3768"/><qTerm  idx="-1"  idxOne="29"  idxTwo="38"  coef=".9135"/><qTerm  idx="-1"  idxOne="30"  idxTwo="32"  coef="-1.3971"/><qTerm  idx="-1"  idxOne="30"  idxTwo="36"  coef="-1.0156"/><qTerm  idx="-1"  idxOne="30"  idxTwo="37"  coef=".4587"/><qTerm  idx="-1"  idxOne="31"  idxTwo="32"  coef="-1.6514"/><qTerm  idx="-1"  idxOne="31"  idxTwo="33"  coef=".3998"/><qTerm  idx="-1"  idxOne="31"  idxTwo="35"  coef="-1.2853"/><qTerm  idx="-1"  idxOne="31"  idxTwo="37"  coef="-1.7554"/><qTerm  idx="-1"  idxOne="32"  idxTwo="33"  coef="1.5231"/><qTerm  idx="-1"  idxOne="32"  idxTwo="34"  coef="-.9193"/><qTerm  idx="-1"  idxOne="32"  idxTwo="35"  coef="-1.5722"/><qTerm  idx="-1"  idxOne="32"  idxTwo="36"  coef="-.7297"/><qTerm  idx="-1"  idxOne="33"  idxTwo="34"  coef="1.6082"/><qTerm  idx="-1"  idxOne="33"  idxTwo="37"  coef="-.1297"/><qTerm  idx="-1"  idxOne="33"  idxTwo="38"  coef="1.7655"/><qTerm  idx="-1"  idxOne="34"  idxTwo="36"  coef=".1067"/><qTerm  idx="-1"  idxOne="34"  idxTwo="39"  coef="-.3122"/><qTerm  idx="-1"  idxOne="35"  idxTwo="39"  coef="-1.9001"/><qTerm  idx="-1"  idxOne="36"  idxTwo="37"  coef="-.2575"/><qTerm  idx="-1"  idxOne="37"  idxTwo="38"  coef="-.622"/><qTerm  idx="-1"  idxOne="38"  idxTwo="38"  coef="-1.954"/></quadraticCoefficients></instanceData></osil>
